NAME : si175.30960.tour
COMMENT : Cost = 1623_30960
COMMENT : Found by LKH [Keld Helsgaun] Thu Nov 16 17:38:10 2017
TYPE : TOUR
DIMENSION : 194
TOUR_SECTION
1
2
4
32
119
31
30
29
28
27
194
127
126
125
124
123
122
134
120
191
95
109
108
94
107
93
92
106
70
69
190
67
66
68
71
72
73
74
75
76
77
189
159
114
113
160
172
173
174
96
180
16
17
18
19
64
62
61
60
58
59
183
128
129
130
131
164
163
152
181
110
151
175
118
150
149
111
179
100
99
85
147
148
157
116
156
177
12
11
36
34
33
35
37
39
40
41
184
79
78
80
38
81
98
97
82
42
176
10
9
8
7
5
6
178
14
13
53
52
54
87
88
56
57
55
188
43
44
83
45
46
84
48
47
49
51
50
15
185
91
105
90
104
89
103
102
101
86
187
112
168
171
170
169
162
158
115
193
136
137
138
139
142
141
135
143
192
20
21
23
25
26
24
65
63
22
3
186
132
133
121
140
146
145
144
182
153
154
155
165
117
166
167
161
-1
EOF
